BAYES
324
2 2 2 2 2 2 2 2 2 2 2 2 2 2 2 2 2 2 2 2 2 2 2 2 2 2 2 2 2 2 2 2 2 2 2 2 2 2 2 2 2 2 2 2 2 2 2 2 2 2 2 2 2 2 2 2 2 2 2 2 2 2 2 2 2 2 2 2 2 2 2 2 2 2 2 2 2 2 2 2 2 2 2 2 2 2 2 2 2 2 2 2 2 2 2 2 2 2 2 2 2 2 2 2 2 2 2 2 2 2 2 2 2 2 2 2 2 2 2 2 2 2 2 2 2 2 2 2 2 2 2 2 2 2 2 2 2 2 2 2 2 2 2 2 2 2 2 2 2 2 2 2 2 2 2 2 2 2 2 2 2 2 2 2 2 2 2 2 2 2 2 2 2 2 2 2 2 2 2 2 2 2 2 2 2 2 2 2 2 2 2 2 2 2 2 2 2 2 2 2 2 2 2 2 2 2 2 2 2 2 2 2 2 2 2 2 2 2 2 2 2 2 2 2 2 2 2 2 2 2 2 2 2 2 2 2 2 2 2 2 2 2 2 2 2 2 2 2 2 2 2 2 2 2 2 2 2 2 2 2 2 2 2 2 2 2 2 2 2 2 2 2 2 2 2 2 2 2 2 2 2 2 2 2 2 2 2 2 2 2 2 2 2 2 2 2 2 2 2 2 2 2 2 2 2 2 2 2 2 2 2 2 2 2 2 2 2 2 2 2 2 2 2 2
324
3 18 1 0
3 19 2 1
3 20 3 2
3 21 4 3
3 22 5 4
3 23 6 5
3 24 7 6
3 25 8 7
3 26 9 8
3 27 10 9
3 28 11 10
3 29 12 11
3 30 13 12
3 31 14 13
3 32 15 14
3 33 16 15
3 34 17 16
2 35 17
3 36 19 18
3 37 20 19
3 38 21 20
3 39 22 21
3 40 23 22
3 41 24 23
3 42 25 24
3 43 26 25
3 44 27 26
3 45 28 27
3 46 29 28
3 47 30 29
3 48 31 30
3 49 32 31
3 50 33 32
3 51 34 33
3 52 35 34
2 53 35
3 54 37 36
3 55 38 37
3 56 39 38
3 57 40 39
3 58 41 40
3 59 42 41
3 60 43 42
3 61 44 43
3 62 45 44
3 63 46 45
3 64 47 46
3 65 48 47
3 66 49 48
3 67 50 49
3 68 51 50
3 69 52 51
3 70 53 52
2 71 53
3 72 55 54
3 73 56 55
3 74 57 56
3 75 58 57
3 76 59 58
3 77 60 59
3 78 61 60
3 79 62 61
3 80 63 62
3 81 64 63
3 82 65 64
3 83 66 65
3 84 67 66
3 85 68 67
3 86 69 68
3 87 70 69
3 88 71 70
2 89 71
3 90 73 72
3 91 74 73
3 92 75 74
3 93 76 75
3 94 77 76
3 95 78 77
3 96 79 78
3 97 80 79
3 98 81 80
3 99 82 81
3 100 83 82
3 101 84 83
3 102 85 84
3 103 86 85
3 104 87 86
3 105 88 87
3 106 89 88
2 107 89
3 108 91 90
3 109 92 91
3 110 93 92
3 111 94 93
3 112 95 94
3 113 96 95
3 114 97 96
3 115 98 97
3 116 99 98
3 117 100 99
3 118 101 100
3 119 102 101
3 120 103 102
3 121 104 103
3 122 105 104
3 123 106 105
3 124 107 106
2 125 107
3 126 109 108
3 127 110 109
3 128 111 110
3 129 112 111
3 130 113 112
3 131 114 113
3 132 115 114
3 133 116 115
3 134 117 116
3 135 118 117
3 136 119 118
3 137 120 119
3 138 121 120
3 139 122 121
3 140 123 122
3 141 124 123
3 142 125 124
2 143 125
3 144 127 126
3 145 128 127
3 146 129 128
3 147 130 129
3 148 131 130
3 149 132 131
3 150 133 132
3 151 134 133
3 152 135 134
3 153 136 135
3 154 137 136
3 155 138 137
3 156 139 138
3 157 140 139
3 158 141 140
3 159 142 141
3 160 143 142
2 161 143
3 162 145 144
3 163 146 145
3 164 147 146
3 165 148 147
3 166 149 148
3 167 150 149
3 168 151 150
3 169 152 151
3 170 153 152
3 171 154 153
3 172 155 154
3 173 156 155
3 174 157 156
3 175 158 157
3 176 159 158
3 177 160 159
3 178 161 160
2 179 161
3 180 163 162
3 181 164 163
3 182 165 164
3 183 166 165
3 184 167 166
3 185 168 167
3 186 169 168
3 187 170 169
3 188 171 170
3 189 172 171
3 190 173 172
3 191 174 173
3 192 175 174
3 193 176 175
3 194 177 176
3 195 178 177
3 196 179 178
2 197 179
3 198 181 180
3 199 182 181
3 200 183 182
3 201 184 183
3 202 185 184
3 203 186 185
3 204 187 186
3 205 188 187
3 206 189 188
3 207 190 189
3 208 191 190
3 209 192 191
3 210 193 192
3 211 194 193
3 212 195 194
3 213 196 195
3 214 197 196
2 215 197
3 216 199 198
3 217 200 199
3 218 201 200
3 219 202 201
3 220 203 202
3 221 204 203
3 222 205 204
3 223 206 205
3 224 207 206
3 225 208 207
3 226 209 208
3 227 210 209
3 228 211 210
3 229 212 211
3 230 213 212
3 231 214 213
3 232 215 214
2 233 215
3 234 217 216
3 235 218 217
3 236 219 218
3 237 220 219
3 238 221 220
3 239 222 221
3 240 223 222
3 241 224 223
3 242 225 224
3 243 226 225
3 244 227 226
3 245 228 227
3 246 229 228
3 247 230 229
3 248 231 230
3 249 232 231
3 250 233 232
2 251 233
3 252 235 234
3 253 236 235
3 254 237 236
3 255 238 237
3 256 239 238
3 257 240 239
3 258 241 240
3 259 242 241
3 260 243 242
3 261 244 243
3 262 245 244
3 263 246 245
3 264 247 246
3 265 248 247
3 266 249 248
3 267 250 249
3 268 251 250
2 269 251
3 270 253 252
3 271 254 253
3 272 255 254
3 273 256 255
3 274 257 256
3 275 258 257
3 276 259 258
3 277 260 259
3 278 261 260
3 279 262 261
3 280 263 262
3 281 264 263
3 282 265 264
3 283 266 265
3 284 267 266
3 285 268 267
3 286 269 268
2 287 269
3 288 271 270
3 289 272 271
3 290 273 272
3 291 274 273
3 292 275 274
3 293 276 275
3 294 277 276
3 295 278 277
3 296 279 278
3 297 280 279
3 298 281 280
3 299 282 281
3 300 283 282
3 301 284 283
3 302 285 284
3 303 286 285
3 304 287 286
2 305 287
3 306 289 288
3 307 290 289
3 308 291 290
3 309 292 291
3 310 293 292
3 311 294 293
3 312 295 294
3 313 296 295
3 314 297 296
3 315 298 297
3 316 299 298
3 317 300 299
3 318 301 300
3 319 302 301
3 320 303 302
3 321 304 303
3 322 305 304
2 323 305
2 307 306
2 308 307
2 309 308
2 310 309
2 311 310
2 312 311
2 313 312
2 314 313
2 315 314
2 316 315
2 317 316
2 318 317
2 319 318
2 320 319
2 321 320
2 322 321
2 323 322
1  323
8
0 1 0 1 0 1 1 0
8
0 1 0 1 1 0 0 1
8
1 0 0 1 1 0 0 1
8
1 0 0 1 1 0 1 0
8
0 1 0 1 0 1 0 1
8
0 1 0 1 0 1 0 1
8
0 1 1 0 1 0 0 1
8
0 1 0 1 0 1 0 1
8
1 0 0 1 1 0 1 0
8
0 1 1 0 1 0 0 1
8
1 0 0 1 0 1 0 1
8
0.5518693078350879 0.4481306921649121 0.6326255171753579 0.36737448282464213 0.6626011393230723 0.33739886067692776 0.2942176528545428 0.7057823471454572
8
1 0 0 1 0 1 1 0
8
0 1 1 0 1 0 1 0
8
1 0 0 1 0 1 1 0
8
1 0 1 0 1 0 0 1
8
1 0 0 1 1 0 1 0
4
1 0 0 1
8
0 1 0 1 0 1 1 0
8
1 0 0 1 0 1 0 1
8
0 1 0 1 1 0 0 1
8
1 0 0 1 0 1 1 0
8
0 1 0 1 1 0 0 1
8
0 1 0 1 0 1 0 1
8
1 0 0 1 0 1 0 1
8
1 0 1 0 1 0 1 0
8
1 0 0 1 0 1 0 1
8
1 0 1 0 1 0 1 0
8
0 1 1 0 1 0 0 1
8
1 0 1 0 0 1 0 1
8
0 1 1 0 1 0 1 0
8
1 0 0 1 0 1 1 0
8
0 1 1 0 1 0 0 1
8
1 0 0 1 0 1 1 0
8
0 1 0 1 0 1 0 1
4
0 1 0 1
8
1 0 0 1 1 0 0 1
8
1 0 1 0 0 1 1 0
8
1 0 1 0 1 0 0 1
8
0 1 1 0 1 0 0 1
8
0 1 1 0 0 1 0 1
8
0 1 0 1 0 1 0 1
8
0 1 1 0 1 0 0 1
8
0 1 0 1 1 0 1 0
8
1 0 0 1 1 0 0 1
8
1 0 1 0 1 0 0 1
8
0 1 0 1 1 0 0 1
8
1 0 1 0 0 1 1 0
8
1 0 0 1 0 1 0 1
8
1 0 0 1 1 0 0 1
8
0 1 0 1 1 0 1 0
8
0.42970262804744125 0.5702973719525588 0.10449322409662193 0.8955067759033781 0.6284386844823904 0.3715613155176096 0.5829180042565585 0.4170819957434415
8
0 1 0 1 1 0 0 1
4
1 0 1 0
8
1 0 0 1 0 1 1 0
8
1 0 1 0 1 0 1 0
8
0 1 0 1 1 0 0 1
8
1 0 1 0 1 0 0 1
8
1 0 0 1 0 1 1 0
8
1 0 0 1 1 0 0 1
8
1 0 1 0 1 0 0 1
8
1 0 1 0 1 0 1 0
8
1 0 0 1 1 0 0 1
8
1 0 0 1 0 1 1 0
8
1 0 0 1 0 1 0 1
8
1 0 0 1 0 1 1 0
8
1 0 0 1 1 0 1 0
8
0 1 0 1 0 1 0 1
8
1 0 0 1 1 0 0 1
8
0 1 0 1 1 0 1 0
8
0 1 1 0 1 0 1 0
4
0 1 1 0
8
0.30056975713166423 0.6994302428683359 0.184110074835625 0.815889925164375 0.30140690880210935 0.6985930911978906 0.3174637990355006 0.6825362009644994
8
0 1 0 1 1 0 1 0
8
0 1 0 1 0 1 0 1
8
1 0 0 1 0 1 0 1
8
1 0 0 1 0 1 0 1
8
0 1 0 1 1 0 1 0
8
0.362321479771982 0.6376785202280181 0.028342545369805936 0.971657454630194 0.4375255966032436 0.5624744033967564 0.40200694553624694 0.5979930544637531
8
0 1 1 0 1 0 1 0
8
0 1 1 0 1 0 1 0
8
1 0 0 1 1 0 1 0
8
0 1 1 0 1 0 1 0
8
0.32786413917247464 0.6721358608275254 0.553487418348062 0.4465125816519379 0.7699869413696891 0.23001305863031082 0.08860688649708783 0.9113931135029122
8
0 1 1 0 1 0 0 1
8
0.04221470758615796 0.957785292413842 0.004691636359944156 0.9953083636400558 0.1510395550019522 0.8489604449980478 0.9354466670310694 0.06455333296893062
8
0 1 1 0 1 0 1 0
8
1 0 0 1 1 0 0 1
8
1 0 0 1 1 0 1 0
4
0 1 1 0
8
1 0 0 1 0 1 0 1
8
0 1 0 1 1 0 0 1
8
1 0 1 0 0 1 0 1
8
1 0 1 0 0 1 0 1
8
1 0 1 0 1 0 0 1
8
0 1 0 1 1 0 1 0
8
0 1 1 0 0 1 1 0
8
0 1 1 0 1 0 1 0
8
0.7312103737127883 0.2687896262872117 0.5414088760933814 0.4585911239066186 0.3682687378333477 0.6317312621666523 0.3053335054144015 0.6946664945855985
8
0 1 1 0 0 1 1 0
8
1 0 1 0 1 0 0 1
8
1 0 0 1 0 1 1 0
8
1 0 1 0 0 1 0 1
8
0 1 1 0 1 0 0 1
8
1 0 1 0 0 1 0 1
8
1 0 0 1 1 0 1 0
8
0 1 1 0 0 1 0 1
4
1 0 1 0
8
1 0 0 1 1 0 1 0
8
1 0 0 1 1 0 0 1
8
1 0 1 0 1 0 1 0
8
1 0 0 1 1 0 1 0
8
0 1 1 0 0 1 1 0
8
1 0 1 0 0 1 1 0
8
0 1 0 1 1 0 0 1
8
0 1 0 1 1 0 1 0
8
0 1 0 1 1 0 1 0
8
0 1 0 1 0 1 0 1
8
0.8515192785630541 0.14848072143694588 0.5369669684906857 0.46303303150931435 0.5701049592345979 0.42989504076540214 0.20408826923141757 0.7959117307685825
8
1 0 1 0 0 1 0 1
8
1 0 0 1 1 0 1 0
8
0 1 0 1 0 1 0 1
8
0 1 1 0 0 1 1 0
8
0 1 1 0 1 0 1 0
8
1 0 0 1 0 1 0 1
4
1 0 0 1
8
0 1 0 1 0 1 0 1
8
0 1 1 0 1 0 1 0
8
0.5234255224087424 0.4765744775912576 0.17548189799346323 0.8245181020065367 0.6540366320996783 0.34596336790032167 0.13710272542503735 0.8628972745749627
8
1 0 1 0 0 1 0 1
8
0 1 1 0 0 1 0 1
8
0 1 0 1 1 0 1 0
8
0.3414587875954959 0.658541212404504 0.12113894739136322 0.8788610526086368 0.643595421507545 0.35640457849245494 0.5484715619164926 0.4515284380835074
8
0 1 0 1 0 1 1 0
8
0 1 1 0 0 1 0 1
8
0 1 0 1 1 0 0 1
8
0 1 0 1 1 0 0 1
8
1 0 1 0 1 0 0 1
8
1 0 0 1 1 0 0 1
8
1 0 1 0 1 0 0 1
8
1 0 0 1 0 1 0 1
8
0 1 1 0 1 0 0 1
8
1 0 1 0 1 0 1 0
4
1 0 0 1
8
1 0 0 1 1 0 0 1
8
0 1 0 1 0 1 0 1
8
1 0 1 0 1 0 1 0
8
1 0 0 1 1 0 0 1
8
0 1 0 1 1 0 1 0
8
0.530929889989024 0.46907011001097587 0.7085382034467629 0.29146179655323706 0.4143261903114529 0.5856738096885471 0.3792598279408472 0.6207401720591529
8
1 0 0 1 0 1 1 0
8
0 1 0 1 1 0 1 0
8
1 0 1 0 0 1 0 1
8
1 0 1 0 0 1 1 0
8
0 1 0 1 0 1 1 0
8
0.12317403763166972 0.8768259623683303 0.17170436221337615 0.8282956377866237 0.26017449175723273 0.7398255082427673 0.4954032687832195 0.5045967312167805
8
1 0 1 0 0 1 0 1
8
1 0 1 0 1 0 0 1
8
0 1 1 0 0 1 0 1
8
1 0 1 0 1 0 0 1
8
0 1 0 1 1 0 0 1
4
1 0 1 0
8
1 0 0 1 1 0 0 1
8
0 1 1 0 1 0 0 1
8
0 1 1 0 1 0 0 1
8
0 1 0 1 0 1 1 0
8
1 0 1 0 1 0 1 0
8
0 1 0 1 0 1 1 0
8
0 1 0 1 0 1 0 1
8
0 1 1 0 0 1 0 1
8
1 0 1 0 1 0 0 1
8
0 1 0 1 1 0 1 0
8
0 1 1 0 1 0 0 1
8
0.47958045535245314 0.5204195446475469 0.1564345367310458 0.8435654632689542 0.5514737199820428 0.4485262800179573 0.6443643706087219 0.3556356293912782
8
0.03985629301651889 0.9601437069834811 0.4544190330404136 0.5455809669595864 0.25501923666688353 0.7449807633331165 0.8147207778905422 0.1852792221094578
8
0 1 1 0 0 1 1 0
8
0.8419697666132165 0.15803023338678351 0.20735605473740948 0.7926439452625905 0.47348734942966464 0.5265126505703352 0.7592584265343219 0.24074157346567815
8
1 0 0 1 1 0 0 1
8
0 1 0 1 0 1 0 1
4
1 0 0 1
8
1 0 0 1 1 0 1 0
8
1 0 0 1 1 0 1 0
8
0 1 0 1 1 0 0 1
8
0 1 0 1 0 1 0 1
8
1 0 0 1 0 1 1 0
8
0 1 0 1 0 1 1 0
8
0.5029072009673982 0.49709279903260184 0.4386054692255853 0.5613945307744147 0.314184933071908 0.685815066928092 0.42823447008449755 0.5717655299155024
8
1 0 1 0 1 0 0 1
8
1 0 1 0 0 1 1 0
8
1 0 1 0 0 1 0 1
8
1 0 0 1 1 0 0 1
8
1 0 1 0 1 0 0 1
8
1 0 0 1 1 0 1 0
8
1 0 0 1 1 0 1 0
8
0 1 0 1 1 0 1 0
8
1 0 1 0 1 0 0 1
8
1 0 0 1 0 1 1 0
4
0.11691349324827172 0.8830865067517283 0.6418511591225305 0.3581488408774694
8
0 1 0 1 1 0 0 1
8
0 1 0 1 0 1 1 0
8
0.801318695546155 0.19868130445384502 0.049201322846076624 0.9507986771539234 0.4901225200008906 0.5098774799991094 0.681204606530586 0.31879539346941405
8
0 1 1 0 1 0 0 1
8
0 1 1 0 1 0 1 0
8
0 1 0 1 0 1 0 1
8
1 0 1 0 1 0 0 1
8
0 1 1 0 1 0 0 1
8
0 1 1 0 0 1 1 0
8
1 0 0 1 1 0 1 0
8
1 0 0 1 1 0 0 1
8
0 1 0 1 1 0 0 1
8
0 1 0 1 1 0 0 1
8
0 1 0 1 0 1 0 1
8
1 0 1 0 0 1 1 0
8
0 1 1 0 1 0 0 1
8
0 1 1 0 1 0 0 1
4
0 1 1 0
8
0 1 1 0 1 0 1 0
8
1 0 0 1 0 1 0 1
8
1 0 0 1 1 0 0 1
8
0.5561586685003176 0.44384133149968247 0.27649710955202694 0.7235028904479731 0.886108334312428 0.11389166568757207 0.4614473709307678 0.5385526290692322
8
0 1 0 1 0 1 0 1
8
0 1 0 1 1 0 1 0
8
0 1 0 1 1 0 0 1
8
0.2587745033447038 0.7412254966552961 0.3924832562586588 0.6075167437413412 0.9201394937569803 0.07986050624301973 0.5393676421288579 0.4606323578711421
8
0 1 0 1 0 1 0 1
8
1 0 0 1 1 0 0 1
8
1 0 1 0 0 1 0 1
8
1 0 1 0 0 1 0 1
8
0 1 0 1 0 1 0 1
8
0 1 0 1 0 1 0 1
8
0 1 1 0 1 0 0 1
8
0 1 1 0 0 1 1 0
8
0 1 1 0 0 1 0 1
4
1 0 0 1
8
0.4297041733138665 0.5702958266861334 0.1911575005222417 0.8088424994777583 0.4108599659887953 0.5891400340112046 0.8023055505959535 0.19769444940404646
8
0.3308402306981181 0.669159769301882 0.4566482184012795 0.5433517815987204 0.7173854486855595 0.28261455131444047 0.6846419378556972 0.31535806214430273
8
0.14039749923857486 0.8596025007614251 0.45117296904056964 0.5488270309594303 0.2772591758437813 0.7227408241562187 0.11007905700694313 0.8899209429930569
8
0 1 1 0 1 0 0 1
8
0 1 1 0 0 1 0 1
8
1 0 1 0 1 0 1 0
8
1 0 1 0 0 1 0 1
8
0 1 0 1 1 0 0 1
8
1 0 0 1 0 1 1 0
8
0 1 1 0 0 1 1 0
8
1 0 0 1 1 0 0 1
8
0 1 0 1 1 0 1 0
8
0 1 1 0 0 1 1 0
8
1 0 0 1 1 0 0 1
8
0 1 1 0 0 1 1 0
8
0 1 0 1 0 1 1 0
8
0 1 0 1 0 1 1 0
4
1 0 0 1
8
0 1 0 1 1 0 1 0
8
0 1 1 0 0 1 0 1
8
0 1 0 1 1 0 1 0
8
1 0 0 1 0 1 0 1
8
0.5855102457784073 0.4144897542215927 0.6556616699728561 0.3443383300271439 0.3098856091455934 0.6901143908544067 0.5371367325085153 0.46286326749148454
8
0 1 1 0 1 0 1 0
8
0 1 1 0 0 1 1 0
8
0.6908263092129207 0.3091736907870793 0.8126267166314061 0.18737328336859396 0.6144769312303243 0.3855230687696757 0.4097127245324541 0.5902872754675458
8
1 0 1 0 1 0 1 0
8
0 1 0 1 1 0 1 0
8
0 1 0 1 1 0 0 1
8
1 0 1 0 1 0 1 0
8
0 1 1 0 0 1 0 1
8
1 0 0 1 1 0 0 1
8
0 1 1 0 1 0 0 1
8
0 1 0 1 0 1 1 0
8
1 0 1 0 0 1 0 1
4
0.3297223915406098 0.6702776084593902 0.9741730635418979 0.025826936458101978
8
1 0 0 1 1 0 1 0
8
1 0 1 0 1 0 1 0
8
0 1 1 0 0 1 0 1
8
1 0 0 1 0 1 1 0
8
1 0 1 0 0 1 1 0
8
1 0 0 1 0 1 0 1
8
0 1 0 1 1 0 1 0
8
1 0 1 0 1 0 0 1
8
1 0 1 0 1 0 0 1
8
0.9702946503320624 0.02970534966793754 0.09383707171496297 0.906162928285037 0.16736825843108402 0.8326317415689158 0.31949943562771105 0.6805005643722889
8
0.526215513461554 0.47378448653844596 0.5502359408761369 0.4497640591238631 0.20502373397250626 0.7949762660274937 0.6660225885331406 0.3339774114668594
8
1 0 1 0 1 0 0 1
8
1 0 0 1 1 0 0 1
8
1 0 1 0 1 0 0 1
8
1 0 1 0 0 1 1 0
8
0 1 0 1 1 0 1 0
8
0 1 1 0 1 0 1 0
4
0.8107822993308621 0.18921770066913793 0.5264827593004159 0.4735172406995841
8
0 1 1 0 0 1 1 0
8
1 0 0 1 1 0 1 0
8
1 0 1 0 1 0 0 1
8
0 1 0 1 1 0 0 1
8
1 0 1 0 0 1 1 0
8
1 0 0 1 1 0 1 0
8
1 0 1 0 1 0 0 1
8
0 1 1 0 1 0 0 1
8
0 1 1 0 0 1 1 0
8
0 1 1 0 1 0 1 0
8
1 0 1 0 1 0 0 1
8
1 0 1 0 1 0 0 1
8
1 0 0 1 0 1 1 0
8
0 1 0 1 0 1 0 1
8
1 0 0 1 1 0 1 0
8
1 0 1 0 0 1 0 1
8
0 1 0 1 1 0 0 1
4
1 0 1 0
4
0 1 0 1
4
0 1 1 0
4
1 0 1 0
4
1 0 1 0
4
0 1 0 1
4
0 1 1 0
4
1 0 0 1
4
0 1 0 1
4
1 0 1 0
4
0.35901661056932727 0.6409833894306727 0.42574856609603445 0.5742514339039656
4
0.3219513912301797 0.6780486087698204 0.6652370612838937 0.3347629387161063
4
1 0 0 1
4
0.5479674766395674 0.4520325233604326 0.8444578616987375 0.15554213830126265
4
0 1 0 1
4
0 1 0 1
4
0.22007072362581756 0.7799292763741825 0.44835480566698643 0.5516451943330136
4
1 0 0 1
2
1 0
